sing20221003.12
TTAA  53111 48698
99005 25831 08002 00079 25630 34002 92764 22842 01002
85501 18032 28506 70140 09015 00000 50586 05120 11518
40758 14345 12012 30971 28959 11014 25098 39343 09014
20247 52356 06518 15426 68356 07023 10658 84550 08539
88106 84545 09523
77999=
TTCC  53112 48698
70865 66373 29008 50068 64179 19516 30387 59584 27527
20646 47387 26027
88600 72174 28002
77999=
TTDD  5311/ 48698
11907 81350 22819 70761 33773 70563 44744 69168 55734 66171
66600 72174 77584 71973 88564 67176 99531 63778 11492 64978
22469 64181 33458 60384 44419 56385 55334 59984 66277 60384
77226 50786 88195 45987 99144 44588 11108 47387
21212 11963 09054 22824 09039 33749 03518 44720 32510 55678
24502 66675 21002 77673 17502 88662 13504 99615 14502 11604
27002 22590 28002 33578 24002 44560 24510 55526 20514 66498
19516 77447 26014 88404 26547 99347 29537 11282 26527 22223
27023 33222 30033 44220 26023 55215 26023 66211 22027 77208
26523 88194 24529 99164 26547 11108 27041=
